;  time  = 600
;  chars = 717
;  score = 0.8858825401878083
(set-logic QF_FP)
(declare-const x0 (_ FloatingPoint 8 24))
(declare-const x1 (_ FloatingPoint 8 24))
(declare-const x2 (_ FloatingPoint 8 24))
(declare-const x3 (_ FloatingPoint 8 24))
(declare-const x4 (_ FloatingPoint 8 24))
(declare-const x5 (_ FloatingPoint 8 24))
(declare-const x6 (_ FloatingPoint 8 24))
(declare-const x7 (_ FloatingPoint 8 24))
(declare-const x8 (_ FloatingPoint 8 24))
(declare-const x9 (_ FloatingPoint 8 24))
(declare-const x10 (_ FloatingPoint 8 24))
(declare-const x11 (_ FloatingPoint 8 24))
(declare-const x12 (_ FloatingPoint 8 24))
(declare-const x13 (_ FloatingPoint 8 24))
(declare-const x14 (_ FloatingPoint 8 24))
(assert (fp.isSubnormal (fp.add RNE (fp.sub RNE (fp.sub RNE (fp.add RNE (fp.add RNE (fp.add RNE (fp.sub RNE (fp.neg (fp.neg x0)) (fp.neg x10)) x14) (fp.add RNE (fp.add RNE x13 x8) (fp.mul RNE (fp.abs (fp.neg x2)) (fp.add RNE (fp.mul RNE x10 x4) (fp.sub RNE x3 x6))))) (fp.abs x1)) (fp.sub RNE x6 (fp.sub RNE x7 (fp.add RNE (fp.abs x0) x1)))) (fp.mul RNE (fp.mul RNE (fp.neg (fp.sub RNE x9 (fp.sub RNE x11 (fp.sub RNE (fp.sub RNE x11 x10) x6)))) (fp.sub RNE (fp.mul RNE x6 x12) (fp.sub RNE x4 (fp.abs (fp.abs x1))))) x8)) (fp.abs (fp.neg (fp.neg (fp.add RNE (fp.abs (fp.add RNE (fp.add RNE (fp.add RNE x14 x5) x13) (fp.abs (fp.mul RNE x3 x0)))) (fp.sub RNE (fp.sub RNE (fp.add RNE (fp.sub RNE x9 x1) x3) x9) (fp.abs x0)))))))))
(check-sat)